--- Job MODEL.gms Start 05/29/23 11:07:02 42.2.0 ef14ea53 LEX-LEG x86 64bit/Linux
--- Applying:
    /opt/gams/42.2.0/gmsprmun.txt
    /opt/gams/42.2.0/gamsconfig.yaml
--- GAMS Parameters defined
    Restart /var/lib/condor/execute/dir_33740/gamsexec/restart.g00
    Input /var/lib/condor/execute/dir_33740/gamsexec/MODEL.gms
    Output /var/lib/condor/execute/dir_33740/gamsexec/solve.lst
    PageWidth 79
    PageSize 0
    ScrDir /var/lib/condor/execute/dir_33740/neos-33756/
    SysDir /opt/gams/42.2.0/
    CurDir /var/lib/condor/execute/dir_33740/gamsexec/
    LogOption 4
    LogFile /var/lib/condor/execute/dir_33740/gamsexec/solve.log
    AppendOut 1
    AppendLog 0
    Suppress 0
    CErr 10
    ErrMsg 1
    ErrorLog 99
    LimRow 0
    LimCol 0
    IDE 1
    GDX /var/lib/condor/execute/dir_33740/gamsexec/out.gdx
    ExecMode 3
    gdxCompress 1
    Solver coincbc
    LstTitleLeftAligned 1
Licensee: NEOS Server License prod-exec-5.neos-server.orgS221207/0001AB-GEN
          mac@f0:1f:af:d3:59:c4                                     DCE1890
          /opt/gams/42.2.0/gamslice.txt
          Evaluation license: Not for commercial or production use
Processor information: 2 socket(s), 12 core(s), and 24 thread(s) available
GAMS 42.2.0   Copyright (C) 1987-2023 GAMS Development. All rights reserved
--- Starting continued compilation
--- Workfile was generated under GAMS version WEX400-400
--- MODEL.gms(4) 3 Mb[FIL:"/var/lib/condor/execute/dir_33740/gamsexec/MODEL.gms",4,0]
--- Starting execution: elapsed 0:00:00.049[LST:10]
--- MODEL.gms(19073) 4 Mb[FIL:"/var/lib/condor/execute/dir_33740/gamsexec/MODEL.gms",19073,0]
--- Generating LP model FBA[LST:10]
--- MODEL.gms(19075) 5 Mb[FIL:"/var/lib/condor/execute/dir_33740/gamsexec/MODEL.gms",19075,0]
---   2,311 rows  2,679 columns  11,358 non-zeroes
--- Range statistics (absolute non-zero finite values)
--- RHS       [min, max] : [        NA,        NA] - Zero values observed as well
--- Bound     [min, max] : [ 1.000E+03, 1.000E+03] - Zero values observed as well
--- Matrix    [min, max] : [ 5.000E-04, 3.387E+01]
--- Executing CPLEX (Solvelink=2): elapsed 0:00:00.168[LST:22]

IBM ILOG CPLEX   42.2.0 ef14ea53 Feb 16, 2023          LEG x86 64bit/Linux    

--- GAMS/Cplex Link licensed for continuous and discrete problems.
--- GMO setup time: 0.00s
--- Space for names approximately 0.10 Mb
--- Use option 'names no' to turn use of names off
--- GMO memory 1.57 Mb (peak 1.59 Mb)
--- Dictionary memory 0.00 Mb
--- Cplex 22.1.1.0 link memory 0.08 Mb (peak 0.36 Mb)
--- Starting Cplex

Version identifier: 22.1.1.0 | 2022-11-28 | 9160aff4d
CPXPARAM_Advance                                 0
CPXPARAM_Threads                                 1
CPXPARAM_MIP_Display                             4
CPXPARAM_MIP_Pool_Capacity                       0
CPXPARAM_Simplex_Limits_Iterations               10000000
CPXPARAM_TimeLimit                               100000
CPXPARAM_MIP_Tolerances_AbsMIPGap                0
Tried aggregator 1 time.
LP Presolve eliminated 1027 rows and 983 columns.
Aggregator did 731 substitutions.
Reduced LP has 552 rows, 965 columns, and 4829 nonzeros.
Presolve time = 0.04 sec. (3.76 ticks)

Iteration log . . .
Iteration:     1   Dual objective     =          1000.000000
Perturbation started.
Iteration:    51   Dual objective     =          1000.000000
Iteration:   141   Dual objective     =           511.102583
Iteration:   228   Dual objective     =           420.870861
Iteration:   310   Dual objective     =           420.850318
Iteration:   388   Dual objective     =           292.724860
Iteration:   450   Dual objective     =           268.270080
Iteration:   512   Dual objective     =           216.838905
Iteration:   583   Dual objective     =           138.015418
Iteration:   662   Dual objective     =           129.655509
Iteration:   741   Dual objective     =           129.552804
Iteration:   812   Dual objective     =           129.462453
Iteration:   874   Dual objective     =           129.440580
Iteration:   936   Dual objective     =           129.425934
Iteration:   998   Dual objective     =           129.413888
Iteration:  1060   Dual objective     =           129.401863
Iteration:  1122   Dual objective     =           115.895635
Iteration:  1184   Dual objective     =           100.192850
Iteration:  1246   Dual objective     =            97.519077
Removing perturbation.

--- LP status (1): optimal.
--- Cplex Time: 0.27sec (det. 43.39 ticks)


Optimal solution found
Objective:           96.671745

--- Reading solution for model FBA[LST:34]
--- Executing after solve: elapsed 0:00:00.579[LST:5081]
--- MODEL.gms(19093) 5 Mb[FIL:"/var/lib/condor/execute/dir_33740/gamsexec/MODEL.gms",19093,0]
--- Putfile results /var/lib/condor/execute/dir_33740/gamsexec/FIRST_ATTEMPT_PREC.csv[FIL:"/var/lib/condor/execute/dir_33740/gamsexec/FIRST_ATTEMPT_PREC.csv",1,1]
--- GDX File /var/lib/condor/execute/dir_33740/gamsexec/out.gdx[FIL:"/var/lib/condor/execute/dir_33740/gamsexec/out.gdx",0,0]
*** Status: Normal completion[LST:5258]
--- Job MODEL.gms Stop 05/29/23 11:07:02 elapsed 0:00:00.612
